data;

set A := 126 494 649 94 863 344 204 432 581 937 967 744 859 903 875 394 636 593 951 635 101 731 183 162 256 569 871 800 772 16 142 458 247 522 662 579 14 912 167 228 129 751 673 902;
param T := 11000;

end;
